;; Original file: j_124.smt2
(set-logic HORN)
(declare-fun star_exec_inv_2 (Int Int Int Int Int Int Int Int Int Int) Bool)
(declare-fun star_exec_inv_1 (Int Int Int Int Int Int Int Int Int Int Int Int Int Int Int Int Int Int Int Int Int Int Int Int Int Int Int Int Int Int Int Int) Bool)
(declare-fun star_exec_inv_3 (Int Int Int Int Int Int Int Int Int Int Int Int Int Int Int Int Int Int Int Int Int Int Int Int Int) Bool)
(declare-fun star_exec_inv_4 (Int Int Int Int Int Int Int Int Int Int Int Int Int Int Int Int Int Int Int Int Int Int Int Int) Bool)
(declare-fun star_exec_inv_5 (Int Int Int Int Int Int Int Int Int Int Int Int Int Int Int Int) Bool)
(declare-fun star_exec_inv_6 (Int Int Int Int Int Int) Bool)
(declare-fun star_exec_inv_8 (Int Int Int Int Int Int Int Int Int Int Int Int Int Int Int) Bool)
(declare-fun star_exec_inv_7 (Int Int Int Int Int Int Int Int Int Int Int Int Int Int Int Int) Bool)
(declare-fun star_exec_inv_9 (Int Int Int Int Int Int) Bool)
(declare-fun star_exec_inv_11 (Int Int Int Int Int Int Int Int Int Int Int Int Int Int Int) Bool)
(declare-fun star_exec_inv_10 (Int Int Int Int Int Int Int Int Int Int Int Int Int Int Int Int) Bool)
(declare-fun star_exec_inv_12 (Int Int Int Int Int Int) Bool)
(declare-fun star_exec_inv_14 (Int Int Int Int Int Int Int Int Int Int Int Int Int Int Int Int) Bool)
(declare-fun star_exec_inv_13 (Int Int Int Int Int Int Int Int Int Int Int Int Int Int Int Int Int Int Int Int) Bool)
(declare-fun star_exec_inv_15 (Int Int Int Int Int Int Int Int Int Int Int Int Int Int Int Int Int Int) Bool)
(declare-fun star_exec_inv_16 (Int Int Int Int Int Int Int Int Int Int Int Int Int Int Int Int Int) Bool)
(declare-fun star_exec_inv_17 (Int Int Int Int Int Int Int) Bool)
(declare-fun star_exec_inv_19 (Int Int Int Int Int Int Int Int Int Int Int Int Int Int Int Int Int) Bool)
(declare-fun star_exec_inv_18 (Int Int Int Int Int Int Int Int Int Int Int Int Int Int Int Int Int Int Int Int) Bool)
(declare-fun star_exec_inv_20 (Int Int Int Int Int Int Int Int Int Int Int Int Int Int Int Int Int Int Int Int Int) Bool)
(declare-fun star_exec_inv_21 (Int Int Int Int Int Int Int Int Int Int Int Int Int Int Int Int Int Int Int Int) Bool)
(declare-fun star_exec_inv_22 (Int Int Int Int Int Int Int Int Int Int Int Int Int Int Int Int Int Int Int Int) Bool)
(declare-fun star_exec_inv_23 (Int Int Int Int Int Int Int Int Int Int Int Int Int Int Int Int Int Int Int Int) Bool)
(declare-fun star_exec_inv_24 (Int Int Int Int Int Int Int Int Int Int Int Int Int Int Int Int Int Int Int) Bool)
(declare-fun star_exec_inv_25 (Int Int Int Int Int Int Int Int Int Int Int Int Int Int Int Int Int Int Int Int) Bool)
(declare-fun star_exec_inv_26 (Int Int Int Int Int Int Int Int Int Int Int Int Int Int Int Int Int Int Int) Bool)
(declare-fun star_exec_inv_27 (Int Int Int Int Int Int Int Int Int Int Int Int Int Int Int) Bool)
(declare-fun star_exec_inv_28 (Int Int Int Int Int Int Int Int Int Int Int Int Int Int Int) Bool)
(declare-fun star_exec_inv_29 (Int Int Int Int Int Int Int Int Int Int Int Int Int Int Int Int Int Int) Bool)
(declare-fun star_exec_inv_30 (Int Int Int Int Int Int Int Int Int Int Int Int Int Int Int) Bool)
(declare-fun star_exec_inv_31 (Int Int Int Int Int Int Int Int Int Int Int Int Int Int Int) Bool)
(declare-fun star_exec_inv_32 (Int Int Int Int Int Int Int Int Int Int Int Int) Bool)
(declare-fun star_exec_inv_33 (Int Int Int Int Int Int Int Int Int Int Int Int) Bool)
(declare-fun star_exec_inv_34 (Int Int Int Int Int Int Int Int Int Int Int Int Int Int Int) Bool)
(declare-fun star_exec_inv_35 (Int Int Int Int Int Int Int Int Int Int Int Int Int Int Int) Bool)
(declare-fun star_exec_inv_36 (Int Int Int Int Int Int Int Int Int Int Int Int Int) Bool)
(declare-fun star_exec_inv_37 (Int Int Int Int Int Int Int Int Int Int Int Int Int) Bool)
(declare-fun star_exec_inv_38 (Int Int Int Int Int Int Int Int Int Int Int Int Int Int Int Int) Bool)
(declare-fun star_exec_inv_39 (Int Int Int Int Int Int Int Int Int Int Int Int Int Int) Bool)
(declare-fun star_exec_inv_40 (Int Int Int Int Int Int Int Int Int Int Int Int Int Int) Bool)
(declare-fun star_exec_inv_41 (Int Int Int Int Int Int Int Int Int Int Int Int Int Int Int Int Int) Bool)

(assert (forall ((A Int) (B Int) (C Int) (D Int) (E Int) (F Int) (G Int) (H Int) (I Int) (J Int) (K Int) (L Int) (M Int) (N Int) (O Int) (P Int) (Q Int) (R Int) (S Int) (T Int) (U Int) (V Int) (W Int)) (=> (star_exec_inv_2 A B C D E F G H I J) (star_exec_inv_1 A B C D E F G H I J K L M N O A B C D P Q R S T U V W F G H I J))))
(assert (forall ((A Int) (B Int) (C Int) (D Int) (E Int) (F Int) (G Int) (H Int) (I Int) (J Int) (V Int) (W Int) (X Int) (Y Int) (Z Int) (A1 Int) (K Int) (B1 Int) (C1 Int) (M Int) (N Int) (O Int) (P Int) (Q Int) (R Int) (S Int) (T Int) (U Int) (L Int)) (=> (and (star_exec_inv_1 A B C D E F G H I J V W X Y Z A B C D A1 K B1 C1 M N O P Q R S T U) (= L 1)) (star_exec_inv_3 A B C D E F G H I J A B C D K L M N O P Q R S T U))))
(assert (forall ((A Int) (B Int) (C Int) (D Int) (E Int) (F Int) (G Int) (H Int) (I Int) (J Int) (U Int) (K Int) (L Int) (M Int) (N Int) (O Int) (P Int) (Q Int) (R Int) (S Int) (T Int)) (=> (and (star_exec_inv_3 A B C D E F G H I J A B C D U K L M N O P Q R S T) (= B 109) (>= D 0)) (star_exec_inv_4 A B C D E F G H I J A B C D K L M N O P Q R S T))))
(assert (forall ((A Int) (B Int) (C Int) (D Int) (E Int) (F Int) (G Int) (H Int) (I Int) (J Int) (K Int) (Q Int) (N Int) (O Int) (P Int) (L Int) (M Int) (R Int) (S Int) (T Int)) (=> (and (star_exec_inv_4 A B C D E F G H I J A B C D K Q N O P L M R S T) (= A 1)) (star_exec_inv_5 A B C D E F G H I J K L M N O P))))
(assert (forall ((G Int) (H Int) (I Int) (J Int) (K Int) (L Int) (M Int) (N Int) (O Int) (P Int) (A Int) (B Int) (C Int) (D Int) (E Int) (F Int)) (=> (star_exec_inv_5 G H I J K L M N O P A B C D E F) (star_exec_inv_6 A B C D E F))))
(assert (forall ((Q Int) (R Int) (S Int) (T Int) (U Int) (V Int) (W Int) (X Int) (Y Int) (K Int) (L Int) (M Int) (N Int) (O Int) (P Int) (A Int) (B Int) (C Int) (D Int) (E Int) (F Int) (G Int) (H Int) (I Int) (J Int)) (=> (and (star_exec_inv_8 Q R S T U V W X Y K L M N O P) (star_exec_inv_5 A B C D E F G H I J Q R S T U V)) (star_exec_inv_7 A B C D E F G H I J K L M N O P))))
(assert (forall ((G Int) (H Int) (I Int) (J Int) (K Int) (L Int) (M Int) (N Int) (O Int) (P Int) (A Int) (B Int) (C Int) (D Int) (E Int) (F Int)) (=> (star_exec_inv_7 G H I J K L M N O P A B C D E F) (star_exec_inv_9 A B C D E F))))
(assert (forall ((Q Int) (R Int) (S Int) (T Int) (U Int) (V Int) (W Int) (X Int) (Y Int) (K Int) (L Int) (M Int) (N Int) (O Int) (P Int) (A Int) (B Int) (C Int) (D Int) (E Int) (F Int) (G Int) (H Int) (I Int) (J Int)) (=> (and (star_exec_inv_11 Q R S T U V W X Y K L M N O P) (star_exec_inv_7 A B C D E F G H I J Q R S T U V)) (star_exec_inv_10 A B C D E F G H I J K L M N O P))))
(assert (forall ((G Int) (H Int) (I Int) (J Int) (K Int) (L Int) (M Int) (N Int) (O Int) (P Int) (A Int) (B Int) (C Int) (D Int) (E Int) (F Int)) (=> (star_exec_inv_10 G H I J K L M N O P A B C D E F) (star_exec_inv_12 A B C D E F))))
(assert (forall ((U Int) (V Int) (W Int) (X Int) (Y Int) (Z Int) (K Int) (L Int) (M Int) (N Int) (O Int) (P Int) (Q Int) (R Int) (S Int) (T Int) (A Int) (B Int) (C Int) (D Int) (E Int) (F Int) (G Int) (H Int) (I Int) (J Int)) (=> (and (star_exec_inv_14 U V W X Y Z K L M N O P Q R S T) (star_exec_inv_10 A B C D E F G H I J U V W X Y Z)) (star_exec_inv_13 A B C D E F G H I J K L M N O P Q R S T))))
(assert (forall ((A Int) (B Int) (C Int) (D Int) (E Int) (F Int) (G Int) (H Int) (I Int) (J Int) (S Int) (T Int) (U Int) (L Int) (M Int) (N Int) (O Int) (P Int) (Q Int) (R Int) (K Int)) (=> (and (star_exec_inv_13 A B C D E F G H I J S T U L M N O P Q R) (= K 1) (not (= S 0))) (star_exec_inv_15 A B C D E F G H I J K L M N O P Q R))))
(assert (forall ((A Int) (B Int) (C Int) (D Int) (E Int) (F Int) (G Int) (H Int) (I Int) (J Int) (S Int) (T Int) (U Int) (L Int) (M Int) (N Int) (O Int) (P Int) (Q Int) (R Int) (K Int)) (=> (and (star_exec_inv_13 A B C D E F G H I J S T U L M N O P Q R) (= K 0) (= S 0)) (star_exec_inv_15 A B C D E F G H I J K L M N O P Q R))))
(assert (forall ((A Int) (B Int) (C Int) (D Int) (E Int) (F Int) (G Int) (H Int) (I Int) (J Int) (R Int) (K Int) (L Int) (M Int) (N Int) (O Int) (P Int) (Q Int)) (=> (star_exec_inv_15 A B C D E F G H I J R K L M N O P Q) (star_exec_inv_16 A B C D E F G H I J K L M N O P Q))))
(assert (forall ((H Int) (I Int) (J Int) (K Int) (L Int) (M Int) (N Int) (O Int) (P Int) (Q Int) (A Int) (B Int) (C Int) (D Int) (E Int) (F Int) (G Int)) (=> (star_exec_inv_16 H I J K L M N O P Q A B C D E F G) (star_exec_inv_17 A B C D E F G))))
(assert (forall ((U Int) (V Int) (W Int) (X Int) (Y Int) (Z Int) (A1 Int) (K Int) (L Int) (M Int) (N Int) (O Int) (P Int) (Q Int) (R Int) (S Int) (T Int) (A Int) (B Int) (C Int) (D Int) (E Int) (F Int) (G Int) (H Int) (I Int) (J Int)) (=> (and (star_exec_inv_19 U V W X Y Z A1 K L M N O P Q R S T) (star_exec_inv_16 A B C D E F G H I J U V W X Y Z A1)) (star_exec_inv_18 A B C D E F G H I J K L M N O P Q R S T))))
(assert (forall ((A Int) (B Int) (C Int) (D Int) (E Int) (F Int) (G Int) (H Int) (I Int) (J Int) (L Int) (M Int) (N Int) (O Int) (P Int) (Q Int) (R Int) (S Int) (T Int) (U Int) (K Int)) (=> (and (star_exec_inv_18 A B C D E F G H I J L M N O P Q R S T U) (= K 1) (not (= L 0))) (star_exec_inv_20 A B C D E F G H I J K L M N O P Q R S T U))))
(assert (forall ((A Int) (B Int) (C Int) (D Int) (E Int) (F Int) (G Int) (H Int) (I Int) (J Int) (L Int) (M Int) (N Int) (O Int) (P Int) (Q Int) (R Int) (S Int) (T Int) (U Int) (K Int)) (=> (and (star_exec_inv_18 A B C D E F G H I J L M N O P Q R S T U) (= K 0) (= L 0)) (star_exec_inv_20 A B C D E F G H I J K L M N O P Q R S T U))))
(assert (forall ((A Int) (B Int) (C Int) (D Int) (E Int) (F Int) (G Int) (H Int) (I Int) (J Int) (U Int) (K Int) (L Int) (M Int) (N Int) (O Int) (P Int) (Q Int) (R Int) (S Int) (T Int)) (=> (star_exec_inv_20 A B C D E F G H I J U K L M N O P Q R S T) (star_exec_inv_21 A B C D E F G H I J K L M N O P Q R S T))))
(assert (forall ((A Int) (B Int) (C Int) (D Int) (E Int) (F Int) (G Int) (H Int) (I Int) (J Int) (K Int) (L Int) (M Int) (N Int) (O Int) (P Int) (Q Int) (R Int) (S Int) (T Int)) (=> (and (star_exec_inv_21 A B C D E F G H I J K L M N O P Q R S T) (= N 0)) (star_exec_inv_22 A B C D E F G H I J K L M N O P Q R S T))))
(assert (forall ((A Int) (B Int) (C Int) (D Int) (E Int) (F Int) (G Int) (H Int) (I Int) (J Int) (K Int) (L Int) (M Int) (N Int) (O Int) (P Int) (Q Int) (R Int) (S Int) (T Int)) (=> (and (star_exec_inv_21 A B C D E F G H I J K L M N O P Q R S T) (not (= N 0))) (star_exec_inv_23 A B C D E F G H I J K L M N O P Q R S T))))
(assert (forall ((A Int) (B Int) (C Int) (D Int) (E Int) (F Int) (G Int) (H Int) (I Int) (J Int) (K Int) (L Int) (M Int) (T Int) (N Int) (O Int) (P Int) (Q Int) (R Int) (S Int)) (=> (star_exec_inv_22 A B C D E F G H I J K L M T N O P Q R S) (star_exec_inv_24 A B C D E F G H I J K L M N O P Q R S))))
(assert (forall ((A Int) (B Int) (C Int) (D Int) (E Int) (F Int) (G Int) (H Int) (I Int) (J Int) (K Int) (L Int) (M Int) (N Int) (O Int) (P Int) (Q Int) (R Int) (S Int) (T Int)) (=> (star_exec_inv_23 A B C D E F G H I J K L M N O P Q R S T) (star_exec_inv_25 A B C D E F G H I J K L M N O P Q R S T))))
(assert (forall ((A Int) (B Int) (C Int) (D Int) (E Int) (F Int) (G Int) (H Int) (I Int) (J Int) (K Int) (L Int) (M Int) (N Int) (O Int) (P Int) (Q Int) (R Int) (S Int) (T Int)) (=> (star_exec_inv_25 A B C D E F G H I J K L M N O P Q R S T) (star_exec_inv_22 A B C D E F G H I J K L M N O P Q R S T))))
(assert (forall ((A Int) (B Int) (C Int) (D Int) (E Int) (F Int) (G Int) (H Int) (I Int) (J Int) (K Int) (L Int) (M Int) (N Int) (O Int) (P Int) (Q Int) (R Int) (S Int)) (=> (star_exec_inv_24 A B C D E F G H I J K L M N O P Q R S) (star_exec_inv_26 A B C D E F G H I J K L M N O P Q R S))))
(assert (forall ((A Int) (B Int) (C Int) (D Int) (E Int) (F Int) (G Int) (H Int) (I Int)) (=> (star_exec_inv_6 A B C D E F) (star_exec_inv_27 A B C D E F G H I A B C D E F))))
(assert (forall ((A Int) (B Int) (C Int) (D Int) (E Int) (F Int) (G Int) (H Int) (I Int) (J Int) (K Int) (L Int) (M Int) (N Int)) (=> (star_exec_inv_27 A B C D E F G H I A J K L M N) (star_exec_inv_28 A B C D E F G H I A J K L M N))))
(assert (forall ((A Int) (B Int) (C Int) (D Int) (E Int) (F Int) (G Int) (H Int) (I Int) (M Int) (N Int) (O Int) (P Int) (Q Int) (R Int) (J Int) (K Int) (L Int)) (=> (and (star_exec_inv_28 A B C D E F G H I M N O P Q R) (= J 0) (= K 0) (= L 0)) (star_exec_inv_29 A B C D E F G H I J K L M N O P Q R))))
(assert (forall ((A Int) (B Int) (C Int) (D Int) (E Int) (F Int) (P Int) (Q Int) (R Int) (G Int) (H Int) (I Int) (J Int) (S Int) (T Int) (M Int) (N Int) (O Int) (L Int) (K Int)) (=> (and (star_exec_inv_29 A B C D E F P Q R G H I J S T M N O) (= L 1)) (star_exec_inv_30 A B C D E F G H I J K L M N O))))
(assert (forall ((A Int) (B Int) (C Int) (D Int) (E Int) (F Int) (G Int) (H Int) (I Int) (J Int) (K Int) (L Int) (M Int) (N Int) (O Int)) (=> (star_exec_inv_30 A B C D E F G H I J K L M N O) (star_exec_inv_31 A B C D E F G H I J K L M N O))))
(assert (forall ((A Int) (B Int) (C Int) (D Int) (E Int) (F Int) (G Int) (H Int) (I Int) (J Int) (K Int) (L Int) (M Int) (N Int) (O Int)) (=> (star_exec_inv_31 A B C D E F G H I J K L M N O) (star_exec_inv_8 A B C D E F G H I J K L M N O))))
(assert (forall ((A Int) (B Int) (C Int) (D Int) (E Int) (F Int)) (=> (star_exec_inv_9 A B C D E F) (star_exec_inv_32 A B C D E F A B C D E F))))
(assert (forall ((A Int) (B Int) (C Int) (D Int) (E Int) (F Int) (G Int) (H Int) (I Int) (J Int) (K Int)) (=> (star_exec_inv_32 A B C D E F A G H I J K) (star_exec_inv_33 A B C D E F A G H I J K))))
(assert (forall ((A Int) (B Int) (C Int) (D Int) (E Int) (F Int) (J Int) (K Int) (L Int) (M Int) (N Int) (O Int) (G Int) (H Int) (I Int)) (=> (and (star_exec_inv_33 A B C D E F J K L M N O) (= G 0) (= H 0) (= I 0)) (star_exec_inv_34 A B C D E F G H I J K L M N O))))
(assert (forall ((A Int) (B Int) (C Int) (D Int) (E Int) (F Int) (G Int) (H Int) (I Int) (J Int) (K Int) (L Int) (M Int) (N Int) (O Int)) (=> (star_exec_inv_34 A B C D E F G H I J K L M N O) (star_exec_inv_35 A B C D E F G H I J K L M N O))))
(assert (forall ((A Int) (B Int) (C Int) (D Int) (E Int) (F Int) (G Int) (H Int) (I Int) (J Int) (K Int) (L Int) (M Int) (N Int) (O Int)) (=> (star_exec_inv_35 A B C D E F G H I J K L M N O) (star_exec_inv_11 A B C D E F G H I J K L M N O))))
(assert (forall ((A Int) (B Int) (C Int) (D Int) (E Int) (F Int) (G Int)) (=> (star_exec_inv_12 A B C D E F) (star_exec_inv_36 A B C D E F G A B C D E F))))
(assert (forall ((A Int) (B Int) (C Int) (D Int) (E Int) (F Int) (G Int) (H Int) (I Int) (J Int) (K Int) (L Int)) (=> (star_exec_inv_36 A B C D E F G A H I J K L) (star_exec_inv_37 A B C D E F G A H I J K L))))
(assert (forall ((A Int) (B Int) (C Int) (D Int) (E Int) (F Int) (G Int) (K Int) (L Int) (M Int) (N Int) (O Int) (P Int) (H Int) (I Int) (J Int)) (=> (and (star_exec_inv_37 A B C D E F G K L M N O P) (= H 0) (= I 0) (= J 0)) (star_exec_inv_38 A B C D E F G H I J K L M N O P))))
(assert (forall ((A Int) (B Int) (C Int) (D Int) (E Int) (F Int) (J Int) (G Int) (H Int) (I Int) (K Int) (L Int) (M Int) (N Int) (O Int) (P Int)) (=> (star_exec_inv_38 A B C D E F J G H I K L M N O P) (star_exec_inv_14 A B C D E F G H I J K L M N O P))))
(assert (forall ((A Int) (B Int) (C Int) (D Int) (E Int) (F Int) (G Int) (H Int)) (=> (star_exec_inv_17 A B C D E F G) (star_exec_inv_39 A B C D E F G H B C D E F G))))
(assert (forall ((A Int) (B Int) (C Int) (D Int) (E Int) (F Int) (G Int) (H Int) (I Int) (J Int) (K Int) (L Int) (M Int)) (=> (star_exec_inv_39 A B C D E F G H B I J K L M) (star_exec_inv_40 A B C D E F G H B I J K L M))))
(assert (forall ((A Int) (B Int) (C Int) (D Int) (E Int) (F Int) (G Int) (H Int) (L Int) (M Int) (N Int) (O Int) (P Int) (Q Int) (I Int) (J Int) (K Int)) (=> (and (star_exec_inv_40 A B C D E F G H L M N O P Q) (= I 0) (= J 0) (= K 0)) (star_exec_inv_41 A B C D E F G H I J K L M N O P Q))))
(assert (forall ((A Int) (B Int) (C Int) (D Int) (E Int) (F Int) (G Int) (K Int) (H Int) (I Int) (J Int) (L Int) (M Int) (N Int) (O Int) (P Int) (Q Int)) (=> (star_exec_inv_41 A B C D E F G K H I J L M N O P Q) (star_exec_inv_19 A B C D E F G H I J K L M N O P Q))))
(assert (forall ((A Int) (B Int) (C Int) (D Int) (E Int) (F Int) (G Int) (H Int) (I Int) (J Int)) (=> true (star_exec_inv_2 A B C D E F G H I J))))
(check-sat)
